%rwf=/oasis/tscc/scratch/davids4/excited-state-torsion-scan
%int=/oasis/tscc/scratch/davids4/excited-state-torsion-scan
%d2e=/oasis/tscc/scratch/davids4/excited-state-torsion-scan
%nproc=16
%mem=8GB
%chk=1540441.chk
# opt=modredundant hf/6-31g(d,p) geom=connectivity cis(root=1)

Excited state torsion scan of Feringa's second generation motor using HF/6-31G(d,p)

0 1
 O                 -0.09050000    5.51660000   12.32120000
 C                  0.21480000    3.51480000   10.55390000
 C                  1.25280000    4.50340000    7.63270000
 C                  0.44290000    5.92740000   11.12860000
 C                  1.75400000    3.26860000    7.37660000
 C                 -0.82520000    2.93960000    9.86190000
 H                 -1.20250000    3.39920000    9.12190000
 C                  1.71830000    2.54370000    6.06960000
 C                  3.05070000    2.60720000    9.54380000
 H                  2.90130000    3.43420000    9.98690000
 C                  1.07320000    7.62440000    9.53850000
 H                  1.22750000    8.53640000    9.32090000
 C                  0.65090000    4.89450000   10.18480000
 C                  0.78800000    2.81500000   11.66800000
 C                  3.57730000    0.18110000    8.21530000
 H                  3.75570000   -0.63520000    7.76350000
 C                  0.70310000    7.26260000   10.83090000
 H                  0.62860000    7.92450000   11.50720000
 C                  2.83460000    1.18190000    7.60400000
 C                  0.87250000    5.48780000    6.53290000
 H                  1.33380000    5.25710000    5.67530000
 C                  1.08040000    5.27530000    8.89830000
 C                  1.21270000    6.64490000    8.57800000
 C                  2.51090000    2.37590000    8.28380000
 C                  4.05430000    0.39900000    9.50190000
 H                  4.54710000   -0.28250000    9.94440000
 C                  1.84960000    3.34860000   12.44380000
 H                  2.18610000    4.21270000   12.23950000
 C                 -1.34250000    1.67890000   10.23260000
 H                 -2.07520000    1.31040000    9.75340000
 C                  1.24850000    1.91920000    3.78700000
 H                  0.86220000    2.12580000    2.94510000
 C                  2.35480000    1.29020000    6.22990000
 C                  0.28610000    1.52720000   12.00840000
 C                 -0.64760000    5.50520000    6.34450000
 H                 -0.89200000    6.22450000    5.72580000
 H                 -1.08200000    5.65750000    7.20890000
 H                 -0.94130000    4.64520000    5.97780000
 C                  1.40140000    6.82660000    7.09720000
 H                  2.35540000    6.96100000    6.86930000
 H                  0.87400000    7.59330000    6.75790000
 C                  1.12950000    2.83210000    4.83480000
 H                  0.65220000    3.64370000    4.70950000
 C                  1.92180000    0.71110000    3.95100000
 H                  2.00760000    0.11300000    3.21840000
 C                  3.81370000    1.61010000   10.14870000
 H                  4.17510000    1.75850000   11.01370000
 C                  2.46740000    0.38040000    5.18470000
 H                  2.90870000   -0.45110000    5.31180000
 C                  0.88290000    0.82110000   13.09520000
 H                  0.55190000   -0.03800000   13.33000000
 C                  1.91740000    1.35500000   13.80020000
 H                  2.31500000    0.86030000   14.50810000
 C                 -0.79590000    0.98540000   11.27590000
 H                 -1.14520000    0.13350000   11.50990000
 C                 -0.42160000    6.51160000   13.28380000
 H                 -1.03880000    7.15980000   12.88430000
 H                  0.39390000    6.97170000   13.57150000
 H                 -0.84800000    6.08810000   14.05700000
 C                  2.39930000    2.64300000   13.48120000
 H                  3.10790000    3.02210000   13.98800000

 1 4 1.0 56 1.0
 2 14 1.5 13 1.0 6 1.5
 3 5 2.0 20 1.0 22 1.0
 4 17 1.5 13 1.5
 5 24 1.0 8 1.0
 6 29 1.5 7 1.0
 7
 8 33 1.5 42 1.5
 9 46 1.5 24 1.5 10 1.0
 10
 11 17 1.5 23 1.5 12 1.0
 12
 13 22 1.5
 14 27 1.5 34 1.5
 15 19 1.5 25 1.5 16 1.0
 16
 17 18 1.0
 18
 19 33 1.0 24 1.5
 20 39 1.0 35 1.0 21 1.0
 21
 22 23 1.5
 23 39 1.0
 24
 25 46 1.5 26 1.0
 26
 27 60 1.5 28 1.0
 28
 29 54 1.5 30 1.0
 30
 31 44 1.5 42 1.5 32 1.0
 32
 33 48 1.5
 34 50 1.5 54 1.5
 35 36 1.0 37 1.0 38 1.0
 36
 37
 38
 39 40 1.0 41 1.0
 40
 41
 42 43 1.0
 43
 44 48 1.5 45 1.0
 45
 46 47 1.0
 47
 48 49 1.0
 49
 50 52 1.5 51 1.0
 51
 52 60 1.5 53 1.0
 53
 54 55 1.0
 55
 56 57 1.0 58 1.0 59 1.0
 57
 58
 59
 60 61 1.0
 61

D 24 5 3 22 S 35 10.000000
