# Any line starting with the # character is a comment line
#! Sample HF/cc-pVDZ Feringa computation

memory 2000 mb

molecule {
  O          -0.0905    5.5166   12.3212
  C           0.2148    3.5148   10.5539
  C           1.2528    4.5034    7.6327
  C           0.4429    5.9274   11.1286
  C           1.7540    3.2686    7.3766
  C          -0.8252    2.9396    9.8619
  H          -1.2025    3.3992    9.1219
  C           1.7183    2.5437    6.0696
  C           3.0507    2.6072    9.5438
  H           2.9013    3.4342    9.9869
  C           1.0732    7.6244    9.5385
  H           1.2275    8.5364    9.3209
  C           0.6509    4.8945   10.1848
  C           0.7880    2.8150   11.6680
  C           3.5773    0.1811    8.2153
  H           3.7557   -0.6352    7.7635
  C           0.7031    7.2626   10.8309
  H           0.6286    7.9245   11.5072
  C           2.8346    1.1819    7.6040
  C           0.8725    5.4878    6.5329
  H           1.3338    5.2571    5.6753
  C           1.0804    5.2753    8.8983
  C           1.2127    6.6449    8.5780
  C           2.5109    2.3759    8.2838
  C           4.0543    0.3990    9.5019
  H           4.5471   -0.2825    9.9444
  C           1.8496    3.3486   12.4438
  H           2.1861    4.2127   12.2395
  C          -1.3425    1.6789   10.2326
  H          -2.0752    1.3104    9.7534
  C           1.2485    1.9192    3.7870
  H           0.8622    2.1258    2.9451
  C           2.3548    1.2902    6.2299
  C           0.2861    1.5272   12.0084
  C          -0.6476    5.5052    6.3445
  H          -0.8920    6.2245    5.7258
  H          -1.0820    5.6575    7.2089
  H          -0.9413    4.6452    5.9778
  C           1.4014    6.8266    7.0972
  H           2.3554    6.9610    6.8693
  H           0.8740    7.5933    6.7579
  C           1.1295    2.8321    4.8348
  H           0.6522    3.6437    4.7095
  C           1.9218    0.7111    3.9510
  H           2.0076    0.1130    3.2184
  C           3.8137    1.6101   10.1487
  H           4.1751    1.7585   11.0137
  C           2.4674    0.3804    5.1847
  H           2.9087   -0.4511    5.3118
  C           0.8829    0.8211   13.0952
  H           0.5519   -0.0380   13.3300
  C           1.9174    1.3550   13.8002
  H           2.3150    0.8603   14.5081
  C          -0.7959    0.9854   11.2759
  H          -1.1452    0.1335   11.5099
  C          -0.4216    6.5116   13.2838
  H          -1.0388    7.1598   12.8843
  H           0.3939    6.9717   13.5715
  H          -0.8480    6.0881   14.0570
  C           2.3993    2.6430   13.4812
  H           3.1079    3.0221   13.9880
}

set basis cc-pVDZ
energy('scf')
